
Gurobi 9.5.2 (win64) logging started Mon Mar 27 20:26:15 2023

Set parameter LogFile to value "2023-03-27_20hr-25min-09sec/Nodes20_Arcs25_LocNodes15/Formulation-2Instance-4.log"
Set parameter TimeLimit to value 600
Set parameter IntFeasTol to value 1e-09
Set parameter DualReductions to value 0
Set parameter NonConvex to value 2
Gurobi Optimizer version 9.5.2 build v9.5.2rc0 (win64)
Thread count: 4 physical cores, 8 logical processors, using up to 8 threads
Optimize a model with 81 rows, 140 columns and 290 nonzeros
Model fingerprint: 0xea5d2672
Model has 45 quadratic objective terms
Model has 45 SOS constraints
Variable types: 125 continuous, 15 integer (15 binary)
Coefficient statistics:
  Matrix range     [2e-02, 2e+02]
  Objective range  [6e-02, 1e+03]
  QObjective range [3e-02, 8e+00]
  Bounds range     [1e+00, 1e+00]
  RHS range        [6e-02, 1e+03]
Presolve removed 24 rows and 35 columns
Presolve time: 0.00s
Presolved: 57 rows, 105 columns, 196 nonzeros
Presolved model has 28 SOS constraint(s)
Presolved model has 28 quadratic objective terms
Variable types: 90 continuous, 15 integer (15 binary)

Root relaxation: objective 5.044674e+05, 124 iterations, 0.00 seconds (0.00 work units)

    Nodes    |    Current Node    |     Objective Bounds      |     Work
 Expl Unexpl |  Obj  Depth IntInf | Incumbent    BestBd   Gap | It/Node Time

     0     0 504467.358    0    3          - 504467.358      -     -    0s
H    0     0                    502800.72106 504467.358  0.33%     -    0s
H    0     0                    504330.79812 504467.358  0.03%     -    0s

Cutting planes:
  MIR: 1

Explored 1 nodes (124 simplex iterations) in 0.03 seconds (0.00 work units)
Thread count was 8 (of 8 available processors)

Solution count 2: 504331 502801 

Optimal solution found (tolerance 1.00e-04)
Best objective 5.043307981176e+05, best bound 5.043414575084e+05, gap 0.0021%

User-callback calls 271, time in user-callback 0.00 sec
